
Gurobi 9.1.0 (win64) logging started Sun Dec 13 17:44:21 2020

Changed value of parameter LogFile to logs/iteration17
   Prev:   Default: 
Gurobi Optimizer version 9.1.0 build v9.1.0rc0 (win64)
Thread count: 4 physical cores, 8 logical processors, using up to 8 threads
Optimize a model with 136 rows, 936 columns and 3745 nonzeros
Model fingerprint: 0x51dd0423
Coefficient statistics:
  Matrix range     [1e+00, 1e+00]
  Objective range  [1e+03, 4e+03]
  Bounds range     [0e+00, 0e+00]
  RHS range        [1e+00, 1e+00]
Presolve removed 12 rows and 12 columns
Presolve time: 0.00s
Presolved: 124 rows, 924 columns, 3732 nonzeros

Iteration    Objective       Primal Inf.    Dual Inf.      Time
       0    5.9678583e+04   8.800000e+01   0.000000e+00      0s
     302    9.1444167e+04   0.000000e+00   0.000000e+00      0s

Solved in 302 iterations and 0.01 seconds
Optimal objective  9.144416667e+04

Solutionx[24] 1.000000 
x[26] 0.500000 
x[27] 0.500000 
x[29] 0.500000 
x[37] 0.250000 
x[41] 0.250000 
x[45] 1.000000 
x[54] 1.000000 
x[64] 1.000000 
x[70] 1.000000 
x[72] 1.000000 
x[76] 1.000000 
x[77] 1.000000 
x[87] 0.250000 
x[90] 0.750000 
x[99] 1.000000 
x[104] 1.000000 
x[107] 1.000000 
x[111] 1.000000 
x[118] 1.000000 
x[121] 0.250000 
x[122] 0.750000 
x[124] 1.000000 
x[125] 0.500000 
x[128] 1.000000 
x[131] 1.000000 
x[132] 1.000000 
x[133] 0.500000 
x[134] 1.000000 
x[264] 0.750000 
x[579] 0.250000 
x[728] 1.000000 
x[2542] 0.250000 
x[2863] 0.250000 
x[2903] 0.500000 
x[4039] 0.750000 
x[15365] 0.250000 
x[31580] 0.500000 
x[26614] 0.500000 
x[6664] 0.500000 
x[12826] 1.000000 
x[11407] 1.000000 
x[3808] 0.250000 
x[12864] 0.500000 
x[23278] 0.250000 
x[32137] 0.500000 
x[4664] 1.000000 
x[19808] 0.750000 
x[23910] 0.250000 
x[2102] 0.500000 
x[15454] 0.500000 
x[14661] 0.750000 
x[356] 0.500000 
x[4741] 0.250000 
x[12247] 0.500000 
x[7216] 1.000000 
x[17131] 1.000000 
x[14101] 1.000000 
x[29630] 0.250000 
x[15923] 0.250000 
x[19546] 0.500000 
x[17081] 1.000000 
x[16358] 1.000000 
x[32331] 1.000000 
x[10365] 1.000000 
x[11121] 0.250000 
x[13645] 0.500000 
x[3861] 0.250000 
x[18244] 1.000000 
x[10437] 1.000000 
x[2548] 0.750000 
x[11860] 0.250000 
x[4608] 0.250000 
x[9966] 0.750000 

Gurobi 9.1.0 (win64) logging started Sun Dec 13 13:25:07 2020

Changed value of parameter LogFile to logs/iteration17
   Prev:   Default: 
Gurobi Optimizer version 9.1.0 build v9.1.0rc0 (win64)
Thread count: 4 physical cores, 8 logical processors, using up to 8 threads
Optimize a model with 136 rows, 936 columns and 3745 nonzeros
Model fingerprint: 0x51dd0423
Coefficient statistics:
  Matrix range     [1e+00, 1e+00]
  Objective range  [1e+03, 4e+03]
  Bounds range     [0e+00, 0e+00]
  RHS range        [1e+00, 1e+00]
Presolve removed 12 rows and 12 columns
Presolve time: 0.00s
Presolved: 124 rows, 924 columns, 3732 nonzeros

Iteration    Objective       Primal Inf.    Dual Inf.      Time
       0    5.9678583e+04   8.800000e+01   0.000000e+00      0s
     302    9.1444167e+04   0.000000e+00   0.000000e+00      0s

Solved in 302 iterations and 0.01 seconds
Optimal objective  9.144416667e+04

Solutionx[24] 1.000000 
x[26] 0.500000 
x[27] 0.500000 
x[29] 0.500000 
x[37] 0.250000 
x[41] 0.250000 
x[45] 1.000000 
x[54] 1.000000 
x[64] 1.000000 
x[70] 1.000000 
x[72] 1.000000 
x[76] 1.000000 
x[77] 1.000000 
x[87] 0.250000 
x[90] 0.750000 
x[99] 1.000000 
x[104] 1.000000 
x[107] 1.000000 
x[111] 1.000000 
x[118] 1.000000 
x[121] 0.250000 
x[122] 0.750000 
x[124] 1.000000 
x[125] 0.500000 
x[128] 1.000000 
x[131] 1.000000 
x[132] 1.000000 
x[133] 0.500000 
x[134] 1.000000 
x[264] 0.750000 
x[579] 0.250000 
x[728] 1.000000 
x[2542] 0.250000 
x[2863] 0.250000 
x[2903] 0.500000 
x[4039] 0.750000 
x[15365] 0.250000 
x[31580] 0.500000 
x[26614] 0.500000 
x[6664] 0.500000 
x[12826] 1.000000 
x[11407] 1.000000 
x[3808] 0.250000 
x[12864] 0.500000 
x[23278] 0.250000 
x[32137] 0.500000 
x[4664] 1.000000 
x[19808] 0.750000 
x[23910] 0.250000 
x[2102] 0.500000 
x[15454] 0.500000 
x[14661] 0.750000 
x[356] 0.500000 
x[4741] 0.250000 
x[12247] 0.500000 
x[7216] 1.000000 
x[17131] 1.000000 
x[14101] 1.000000 
x[29630] 0.250000 
x[15923] 0.250000 
x[19546] 0.500000 
x[17081] 1.000000 
x[16358] 1.000000 
x[32331] 1.000000 
x[10365] 1.000000 
x[11121] 0.250000 
x[13645] 0.500000 
x[3861] 0.250000 
x[18244] 1.000000 
x[10437] 1.000000 
x[2548] 0.750000 
x[11860] 0.250000 
x[4608] 0.250000 
x[9966] 0.750000 
